c Sudoku solution
p cnf 729 0
131 0
147 0
178 0
185 0
196 0
226 0
279 0
333 0
345 0
368 0
356 0
427 0
486 0
521 0
539 0
548 0
553 0
163 0
159 0
636 0
566 0
649 0
499 0
684 0
698 0
514 0
112 0
124 0
329 0
317 0
746 0
777 0
864 0
882 0
819 0
916 0
711 0
876 0
381 0
587 0
283 0
297 0
895 0
991 0
793 0
974 0
734 0
372 0
394 0
575 0
592 0
922 0
823 0
841 0
943 0
432 0
418 0
473 0
671 0
613 0
625 0
215 0
238 0
728 0
935 0
837 0
789 0
988 0
969 0
858 0
957 0
444 0
242 0
261 0
254 0
451 0
465 0
755 0
762 0
652 0
667 0
